10 10
0 100 100 100 100 6 4 100 100 100 
100 0 2 100 100 3 100 3 2 100 
100 2 0 100 100 100 2 100 2 2 
100 100 100 0 2 100 100 3 2 100 
100 100 100 2 0 100 100 100 2 2 
6 3 100 100 100 0 100 2 100 100 
4 100 2 100 100 100 0 100 100 2 
100 3 100 3 100 2 100 0 100 100 
100 2 2 2 2 100 100 100 0 100 
100 100 2 100 2 100 2 100 100 0 
